c nIsolatedPIs 0
c maxPI 16
p cnf 77 184
c gate 17 -8 16 0
-8 -17 0
16 -17 0
8 -16 17 0
c gate 18 8 -16 0
8 -18 0
-16 -18 0
-8 16 18 0
c gate 19 7 -15 0
7 -19 0
-15 -19 0
-7 15 19 0
c gate 20 -18 -19 0
-18 -20 0
-19 -20 0
18 19 20 0
c gate 21 -7 15 0
-7 -21 0
15 -21 0
7 -15 21 0
c gate 22 6 -14 0
6 -22 0
-14 -22 0
-6 14 22 0
c gate 23 -6 14 0
-6 -23 0
14 -23 0
6 -14 23 0
c gate 24 5 -13 0
5 -24 0
-13 -24 0
-5 13 24 0
c gate 25 -23 24 0
-23 -25 0
24 -25 0
23 -24 25 0
c gate 26 -22 -25 0
-22 -26 0
-25 -26 0
22 25 26 0
c gate 27 -21 -26 0
-21 -27 0
-26 -27 0
21 26 27 0
c gate 28 20 -27 0
20 -28 0
-27 -28 0
-20 27 28 0
c gate 29 -17 -28 0
-17 -29 0
-28 -29 0
17 28 29 0
c gate 30 4 -12 0
4 -30 0
-12 -30 0
-4 12 30 0
c gate 31 -3 11 0
-3 -31 0
11 -31 0
3 -11 31 0
c gate 32 3 -11 0
3 -32 0
-11 -32 0
-3 11 32 0
c gate 33 -2 10 0
-2 -33 0
10 -33 0
2 -10 33 0
c gate 34 2 -10 0
2 -34 0
-10 -34 0
-2 10 34 0
c gate 35 -33 -34 0
-33 -35 0
-34 -35 0
33 34 35 0
c gate 36 1 -9 0
1 -36 0
-9 -36 0
-1 9 36 0
c gate 37 35 -36 0
35 -37 0
-36 -37 0
-35 36 37 0
c gate 38 -33 -37 0
-33 -38 0
-37 -38 0
33 37 38 0
c gate 39 -32 -38 0
-32 -39 0
-38 -39 0
32 38 39 0
c gate 40 -31 -39 0
-31 -40 0
-39 -40 0
31 39 40 0
c gate 41 -30 -40 0
-30 -41 0
-40 -41 0
30 40 41 0
c gate 42 -17 -21 0
-17 -42 0
-21 -42 0
17 21 42 0
c gate 43 -5 13 0
-5 -43 0
13 -43 0
5 -13 43 0
c gate 44 -23 -43 0
-23 -44 0
-43 -44 0
23 43 44 0
c gate 45 42 44 0
42 -45 0
44 -45 0
-42 -44 45 0
c gate 46 20 45 0
20 -46 0
45 -46 0
-20 -45 46 0
c gate 47 26 46 0
26 -47 0
46 -47 0
-26 -46 47 0
c gate 48 -4 12 0
-4 -48 0
12 -48 0
4 -12 48 0
c gate 49 47 -48 0
47 -49 0
-48 -49 0
-47 48 49 0
c gate 50 -41 49 0
-41 -50 0
49 -50 0
41 -49 50 0
c gate 51 -29 -50 0
-29 -51 0
-50 -51 0
29 50 51 0
c gate 52 -1 9 0
-1 -52 0
9 -52 0
1 -9 52 0
c gate 53 37 -52 0
37 -53 0
-52 -53 0
-37 52 53 0
c gate 54 -30 -48 0
-30 -54 0
-48 -54 0
30 48 54 0
c gate 55 -31 -32 0
-31 -55 0
-32 -55 0
31 32 55 0
c gate 56 54 55 0
54 -56 0
55 -56 0
-54 -55 56 0
c gate 57 53 56 0
53 -57 0
56 -57 0
-53 -56 57 0
c gate 58 47 57 0
47 -58 0
57 -58 0
-47 -57 58 0
c gate 59 -51 -58 0
-51 -59 0
-58 -59 0
51 58 59 0
c gate 60 -29 59 0
-29 -60 0
59 -60 0
29 -59 60 0
c gate 61 -38 -53 0
-38 -61 0
-53 -61 0
38 53 61 0
c gate 62 -32 61 0
-32 -62 0
61 -62 0
32 -61 62 0
c gate 63 -31 -62 0
-31 -63 0
-62 -63 0
31 62 63 0
c gate 64 29 -63 0
29 -64 0
-63 -64 0
-29 63 64 0
c gate 65 -29 40 0
-29 -65 0
40 -65 0
29 -40 65 0
c gate 66 -64 -65 0
-64 -66 0
-65 -66 0
64 65 66 0
c gate 67 54 -66 0
54 -67 0
-66 -67 0
-54 66 67 0
c gate 68 -54 66 0
-54 -68 0
66 -68 0
54 -66 68 0
c gate 69 -67 -68 0
-67 -69 0
-68 -69 0
67 68 69 0
c gate 70 59 -63 0
59 -70 0
-63 -70 0
-59 63 70 0
c gate 71 40 -59 0
40 -71 0
-59 -71 0
-40 59 71 0
c gate 72 -70 -71 0
-70 -72 0
-71 -72 0
70 71 72 0
c gate 73 54 -72 0
54 -73 0
-72 -73 0
-54 72 73 0
c gate 74 -54 72 0
-54 -74 0
72 -74 0
54 -72 74 0
c gate 75 -73 -74 0
-73 -75 0
-74 -75 0
73 74 75 0
c gate 76 69 -75 0
69 -76 0
-75 -76 0
-69 75 76 0
c gate 77 60 -76 0
60 -77 0
-76 -77 0
-60 76 77 0
c PO
77 0
